10,20,30
60,100,120
50

23,31,29,44,53,38,63,85,89,82
92,57,49,68,60,43,67,84,87,72
165

1,2,3
4,5,6
3

4,5,1
1,2,3
4

41,50,49,59,55,57,60
442,525,511,593,546,564,617
170

10.7,32.5,18.7
20.4,8.3,14.6
10